Route #1: 1 5 30 14 26 27 2 1
Route #2: 1 12 11 37 3 15 18 25 35 19 8 21 1
Route #3: 1 44 17 31 43 6 1
Route #4: 1 40 13 33 29 20 38 24 9 23 28 1
Route #5: 1 36 45 34 41 39 22 16 1
Route #6: 1 4 10 32 42 1
cost 737
